p cnf 29 26
-1 24 -25 0 
-2 24 -25 0 
-3 -4 5 25 -24 0 
-3 -5 4 25 -24 0 
-3 25 -24 0 
-6 24 -25 0 
-7 24 -25 0 
-8 20 26 -24 -25 0 
-9 24 -25 0 
-10 24 -25 0 
-11 24 -25 0 
-12 13 24 -25 0 
-13 12 24 -25 0 
-14 26 -24 -25 0 
-15 24 -25 0 
-16 24 -25 0 
-17 -18 24 -25 0 
-19 -3 25 -24 0 
-20 8 24 -25 0 
-1 17 0 
-21 27 -24 -25 -3 0 
-22 27 -24 -25 -3 0 
-22 28 -9 -24 -25 0 
-13 12 29 -24 -25 0 
-9 29 -24 -25 0 
-23 24 -25 0 
